\ LP format - for model browsing. Use MPS format to capture full model detail.
Minimize
  C
Subject To
 28(1,1): - f(1,1) - x(1,1,1) - x(1,2,1) - x(1,3,1) = -1
 28(2,1): - f(2,1) - x(2,1,1) - x(2,2,1) - x(2,3,1) = -1
 28(3,1): - f(3,1) - x(3,1,1) - x(3,2,1) - x(3,3,1) = -1
 29(1,2): f(1,1) + x(1,1,1) + x(1,3,1) - f(1,2) - x(1,1,2) - x(1,2,2)
   - x(1,3,2) = 0
 29(1,3): x(1,2,1) + f(1,2) + x(1,1,2) + x(1,3,2) - f(1,3) - x(1,1,3)
   - x(1,2,3) - x(1,3,3) = 0
 29(1,4): x(1,2,2) + f(1,3) + x(1,1,3) + x(1,3,3) - f(1,4) - x(1,1,4)
   - x(1,2,4) - x(1,3,4) = 0
 29(1,5): x(1,2,3) + f(1,4) + x(1,1,4) + x(1,3,4) - f(1,5) - x(1,1,5)
   - x(1,2,5) - x(1,3,5) = 0
 29(1,6): x(1,2,4) + f(1,5) + x(1,1,5) + x(1,3,5) - f(1,6) - x(1,1,6)
   - x(1,2,6) - x(1,3,6) = 0
 29(1,7): x(1,2,5) + f(1,6) + x(1,1,6) + x(1,3,6) - f(1,7) - x(1,1,7)
   - x(1,2,7) - x(1,3,7) = 0
 29(1,8): x(1,2,6) + f(1,7) + x(1,1,7) + x(1,3,7) - f(1,8) - x(1,1,8)
   - x(1,2,8) - x(1,3,8) = 0
 29(1,9): x(1,2,7) + f(1,8) + x(1,1,8) + x(1,3,8) - f(1,9) - x(1,1,9)
   - x(1,2,9) - x(1,3,9) = 0
 29(1,10): x(1,2,8) + f(1,9) + x(1,1,9) + x(1,3,9) - f(1,10) - x(1,1,10)
   - x(1,2,10) - x(1,3,10) = 0
 29(1,11): x(1,2,9) + f(1,10) + x(1,1,10) + x(1,3,10) - f(1,11) - x(1,1,11)
   - x(1,2,11) - x(1,3,11) = 0
 29(1,12): x(1,2,10) + f(1,11) + x(1,1,11) + x(1,3,11) - f(1,12)
   - x(1,1,12) - x(1,2,12) - x(1,3,12) = 0
 29(1,13): x(1,2,11) + f(1,12) + x(1,1,12) + x(1,3,12) - f(1,13)
   - x(1,1,13) - x(1,2,13) - x(1,3,13) = 0
 29(1,14): x(1,2,12) + f(1,13) + x(1,1,13) + x(1,3,13) - f(1,14)
   - x(1,1,14) - x(1,2,14) - x(1,3,14) = 0
 29(1,15): x(1,2,13) + f(1,14) + x(1,1,14) + x(1,3,14) - f(1,15)
   - x(1,1,15) - x(1,2,15) - x(1,3,15) = 0
 29(1,16): x(1,2,14) + f(1,15) + x(1,1,15) + x(1,3,15) - f(1,16)
   - x(1,1,16) - x(1,2,16) - x(1,3,16) = 0
 29(1,17): x(1,2,15) + f(1,16) + x(1,1,16) + x(1,3,16) - f(1,17)
   - x(1,1,17) - x(1,2,17) - x(1,3,17) = 0
 29(1,18): x(1,2,16) + f(1,17) + x(1,1,17) + x(1,3,17) - f(1,18)
   - x(1,1,18) - x(1,2,18) - x(1,3,18) = 0
 29(1,19): x(1,2,17) + f(1,18) + x(1,1,18) + x(1,3,18) - f(1,19)
   - x(1,1,19) - x(1,2,19) - x(1,3,19) = 0
 29(1,20): x(1,2,18) + f(1,19) + x(1,1,19) + x(1,3,19) - f(1,20)
   - x(1,1,20) - x(1,2,20) - x(1,3,20) = 0
 29(1,21): x(1,2,19) + f(1,20) + x(1,1,20) + x(1,3,20) - f(1,21)
   - x(1,1,21) - x(1,2,21) - x(1,3,21) = 0
 29(1,22): x(1,2,20) + f(1,21) + x(1,1,21) + x(1,3,21) - f(1,22)
   - x(1,1,22) - x(1,2,22) - x(1,3,22) = 0
 29(1,23): x(1,2,21) + f(1,22) + x(1,1,22) + x(1,3,22) - f(1,23)
   - x(1,1,23) - x(1,2,23) - x(1,3,23) = 0
 29(1,24): x(1,2,22) + f(1,23) + x(1,1,23) + x(1,3,23) - f(1,24)
   - x(1,1,24) - x(1,2,24) - x(1,3,24) = 0
 29(1,25): x(1,2,23) + f(1,24) + x(1,1,24) + x(1,3,24) - f(1,25)
   - x(1,1,25) - x(1,2,25) - x(1,3,25) = 0
 29(2,2): f(2,1) + x(2,2,1) - f(2,2) - x(2,1,2) - x(2,2,2) - x(2,3,2) = 0
 29(2,3): x(2,1,1) + x(2,3,1) + f(2,2) + x(2,2,2) - f(2,3) - x(2,1,3)
   - x(2,2,3) - x(2,3,3) = 0
 29(2,4): x(2,1,2) + x(2,3,2) + f(2,3) + x(2,2,3) - f(2,4) - x(2,1,4)
   - x(2,2,4) - x(2,3,4) = 0
 29(2,5): x(2,1,3) + x(2,3,3) + f(2,4) + x(2,2,4) - f(2,5) - x(2,1,5)
   - x(2,2,5) - x(2,3,5) = 0
 29(2,6): x(2,1,4) + x(2,3,4) + f(2,5) + x(2,2,5) - f(2,6) - x(2,1,6)
   - x(2,2,6) - x(2,3,6) = 0
 29(2,7): x(2,1,5) + x(2,3,5) + f(2,6) + x(2,2,6) - f(2,7) - x(2,1,7)
   - x(2,2,7) - x(2,3,7) = 0
 29(2,8): x(2,1,6) + x(2,3,6) + f(2,7) + x(2,2,7) - f(2,8) - x(2,1,8)
   - x(2,2,8) - x(2,3,8) = 0
 29(2,9): x(2,1,7) + x(2,3,7) + f(2,8) + x(2,2,8) - f(2,9) - x(2,1,9)
   - x(2,2,9) - x(2,3,9) = 0
 29(2,10): x(2,1,8) + x(2,3,8) + f(2,9) + x(2,2,9) - f(2,10) - x(2,1,10)
   - x(2,2,10) - x(2,3,10) = 0
 29(2,11): x(2,1,9) + x(2,3,9) + f(2,10) + x(2,2,10) - f(2,11) - x(2,1,11)
   - x(2,2,11) - x(2,3,11) = 0
 29(2,12): x(2,1,10) + x(2,3,10) + f(2,11) + x(2,2,11) - f(2,12)
   - x(2,1,12) - x(2,2,12) - x(2,3,12) = 0
 29(2,13): x(2,1,11) + x(2,3,11) + f(2,12) + x(2,2,12) - f(2,13)
   - x(2,1,13) - x(2,2,13) - x(2,3,13) = 0
 29(2,14): x(2,1,12) + x(2,3,12) + f(2,13) + x(2,2,13) - f(2,14)
   - x(2,1,14) - x(2,2,14) - x(2,3,14) = 0
 29(2,15): x(2,1,13) + x(2,3,13) + f(2,14) + x(2,2,14) - f(2,15)
   - x(2,1,15) - x(2,2,15) - x(2,3,15) = 0
 29(2,16): x(2,1,14) + x(2,3,14) + f(2,15) + x(2,2,15) - f(2,16)
   - x(2,1,16) - x(2,2,16) - x(2,3,16) = 0
 29(2,17): x(2,1,15) + x(2,3,15) + f(2,16) + x(2,2,16) - f(2,17)
   - x(2,1,17) - x(2,2,17) - x(2,3,17) = 0
 29(2,18): x(2,1,16) + x(2,3,16) + f(2,17) + x(2,2,17) - f(2,18)
   - x(2,1,18) - x(2,2,18) - x(2,3,18) = 0
 29(2,19): x(2,1,17) + x(2,3,17) + f(2,18) + x(2,2,18) - f(2,19)
   - x(2,1,19) - x(2,2,19) - x(2,3,19) = 0
 29(2,20): x(2,1,18) + x(2,3,18) + f(2,19) + x(2,2,19) - f(2,20)
   - x(2,1,20) - x(2,2,20) - x(2,3,20) = 0
 29(2,21): x(2,1,19) + x(2,3,19) + f(2,20) + x(2,2,20) - f(2,21)
   - x(2,1,21) - x(2,2,21) - x(2,3,21) = 0
 29(2,22): x(2,1,20) + x(2,3,20) + f(2,21) + x(2,2,21) - f(2,22)
   - x(2,1,22) - x(2,2,22) - x(2,3,22) = 0
 29(2,23): x(2,1,21) + x(2,3,21) + f(2,22) + x(2,2,22) - f(2,23)
   - x(2,1,23) - x(2,2,23) - x(2,3,23) = 0
 29(2,24): x(2,1,22) + x(2,3,22) + f(2,23) + x(2,2,23) - f(2,24)
   - x(2,1,24) - x(2,2,24) - x(2,3,24) = 0
 29(2,25): x(2,1,23) + x(2,3,23) + f(2,24) + x(2,2,24) - f(2,25)
   - x(2,1,25) - x(2,2,25) - x(2,3,25) = 0
 29(3,2): f(3,1) + x(3,3,1) - f(3,2) - x(3,1,2) - x(3,2,2) - x(3,3,2) = 0
 29(3,3): x(3,1,1) + x(3,2,1) + f(3,2) + x(3,3,2) - f(3,3) - x(3,1,3)
   - x(3,2,3) - x(3,3,3) = 0
 29(3,4): x(3,1,2) + x(3,2,2) + f(3,3) + x(3,3,3) - f(3,4) - x(3,1,4)
   - x(3,2,4) - x(3,3,4) = 0
 29(3,5): x(3,1,3) + x(3,2,3) + f(3,4) + x(3,3,4) - f(3,5) - x(3,1,5)
   - x(3,2,5) - x(3,3,5) = 0
 29(3,6): x(3,1,4) + x(3,2,4) + f(3,5) + x(3,3,5) - f(3,6) - x(3,1,6)
   - x(3,2,6) - x(3,3,6) = 0
 29(3,7): x(3,1,5) + x(3,2,5) + f(3,6) + x(3,3,6) - f(3,7) - x(3,1,7)
   - x(3,2,7) - x(3,3,7) = 0
 29(3,8): x(3,1,6) + x(3,2,6) + f(3,7) + x(3,3,7) - f(3,8) - x(3,1,8)
   - x(3,2,8) - x(3,3,8) = 0
 29(3,9): x(3,1,7) + x(3,2,7) + f(3,8) + x(3,3,8) - f(3,9) - x(3,1,9)
   - x(3,2,9) - x(3,3,9) = 0
 29(3,10): x(3,1,8) + x(3,2,8) + f(3,9) + x(3,3,9) - f(3,10) - x(3,1,10)
   - x(3,2,10) - x(3,3,10) = 0
 29(3,11): x(3,1,9) + x(3,2,9) + f(3,10) + x(3,3,10) - f(3,11) - x(3,1,11)
   - x(3,2,11) - x(3,3,11) = 0
 29(3,12): x(3,1,10) + x(3,2,10) + f(3,11) + x(3,3,11) - f(3,12)
   - x(3,1,12) - x(3,2,12) - x(3,3,12) = 0
 29(3,13): x(3,1,11) + x(3,2,11) + f(3,12) + x(3,3,12) - f(3,13)
   - x(3,1,13) - x(3,2,13) - x(3,3,13) = 0
 29(3,14): x(3,1,12) + x(3,2,12) + f(3,13) + x(3,3,13) - f(3,14)
   - x(3,1,14) - x(3,2,14) - x(3,3,14) = 0
 29(3,15): x(3,1,13) + x(3,2,13) + f(3,14) + x(3,3,14) - f(3,15)
   - x(3,1,15) - x(3,2,15) - x(3,3,15) = 0
 29(3,16): x(3,1,14) + x(3,2,14) + f(3,15) + x(3,3,15) - f(3,16)
   - x(3,1,16) - x(3,2,16) - x(3,3,16) = 0
 29(3,17): x(3,1,15) + x(3,2,15) + f(3,16) + x(3,3,16) - f(3,17)
   - x(3,1,17) - x(3,2,17) - x(3,3,17) = 0
 29(3,18): x(3,1,16) + x(3,2,16) + f(3,17) + x(3,3,17) - f(3,18)
   - x(3,1,18) - x(3,2,18) - x(3,3,18) = 0
 29(3,19): x(3,1,17) + x(3,2,17) + f(3,18) + x(3,3,18) - f(3,19)
   - x(3,1,19) - x(3,2,19) - x(3,3,19) = 0
 29(3,20): x(3,1,18) + x(3,2,18) + f(3,19) + x(3,3,19) - f(3,20)
   - x(3,1,20) - x(3,2,20) - x(3,3,20) = 0
 29(3,21): x(3,1,19) + x(3,2,19) + f(3,20) + x(3,3,20) - f(3,21)
   - x(3,1,21) - x(3,2,21) - x(3,3,21) = 0
 29(3,22): x(3,1,20) + x(3,2,20) + f(3,21) + x(3,3,21) - f(3,22)
   - x(3,1,22) - x(3,2,22) - x(3,3,22) = 0
 29(3,23): x(3,1,21) + x(3,2,21) + f(3,22) + x(3,3,22) - f(3,23)
   - x(3,1,23) - x(3,2,23) - x(3,3,23) = 0
 29(3,24): x(3,1,22) + x(3,2,22) + f(3,23) + x(3,3,23) - f(3,24)
   - x(3,1,24) - x(3,2,24) - x(3,3,24) = 0
 29(3,25): x(3,1,23) + x(3,2,23) + f(3,24) + x(3,3,24) - f(3,25)
   - x(3,1,25) - x(3,2,25) - x(3,3,25) = 0
 30(1,1,1): - x(3,1,1) - e(3,1,1) = -1
 30(1,2,1): - x(2,2,1) - e(2,2,1) = -1
 30(1,3,1): - x(3,3,1) - e(3,3,1) = -1
 31(1,1,2): e(3,1,1) - x(3,1,2) - e(3,1,2) = 0
 31(1,1,3): e(3,1,2) - x(3,1,3) - e(3,1,3) = 0
 31(1,1,4): e(3,1,3) - x(3,1,4) - e(3,1,4) = 0
 31(1,1,5): e(3,1,4) - x(3,1,5) - e(3,1,5) = 0
 31(1,1,6): e(3,1,5) - x(3,1,6) - e(3,1,6) = 0
 31(1,1,7): e(3,1,6) - x(3,1,7) - e(3,1,7) = 0
 31(1,1,8): e(3,1,7) - x(3,1,8) - e(3,1,8) = 0
 31(1,1,9): e(3,1,8) - x(3,1,9) - e(3,1,9) = 0
 31(1,1,10): e(3,1,9) - x(3,1,10) - e(3,1,10) = 0
 31(1,1,11): e(3,1,10) - x(3,1,11) - e(3,1,11) = 0
 31(1,1,12): e(3,1,11) - x(3,1,12) - e(3,1,12) = 0
 31(1,1,13): e(3,1,12) - x(3,1,13) - e(3,1,13) = 0
 31(1,1,14): e(3,1,13) - x(3,1,14) - e(3,1,14) = 0
 31(1,1,15): e(3,1,14) - x(3,1,15) - e(3,1,15) = 0
 31(1,1,16): e(3,1,15) - x(3,1,16) - e(3,1,16) = 0
 31(1,1,17): e(3,1,16) - x(3,1,17) - e(3,1,17) = 0
 31(1,1,18): e(3,1,17) - x(3,1,18) - e(3,1,18) = 0
 31(1,1,19): e(3,1,18) - x(3,1,19) - e(3,1,19) = 0
 31(1,1,20): e(3,1,19) - x(3,1,20) - e(3,1,20) = 0
 31(1,1,21): e(3,1,20) - x(3,1,21) - e(3,1,21) = 0
 31(1,1,22): e(3,1,21) - x(3,1,22) - e(3,1,22) = 0
 31(1,1,23): e(3,1,22) - x(3,1,23) - e(3,1,23) = 0
 31(1,1,24): e(3,1,23) - x(3,1,24) - e(3,1,24) = 0
 31(1,1,25): e(3,1,24) - x(3,1,25) - e(3,1,25) = 0
 31(1,2,2): e(2,2,1) - x(2,2,2) - e(2,2,2) = 0
 31(1,2,3): e(2,2,2) - x(2,2,3) - e(2,2,3) = 0
 31(1,2,4): e(2,2,3) - x(2,2,4) - e(2,2,4) = 0
 31(1,2,5): e(2,2,4) - x(2,2,5) - e(2,2,5) = 0
 31(1,2,6): e(2,2,5) - x(2,2,6) - e(2,2,6) = 0
 31(1,2,7): e(2,2,6) - x(2,2,7) - e(2,2,7) = 0
 31(1,2,8): e(2,2,7) - x(2,2,8) - e(2,2,8) = 0
 31(1,2,9): e(2,2,8) - x(2,2,9) - e(2,2,9) = 0
 31(1,2,10): e(2,2,9) - x(2,2,10) - e(2,2,10) = 0
 31(1,2,11): e(2,2,10) - x(2,2,11) - e(2,2,11) = 0
 31(1,2,12): e(2,2,11) - x(2,2,12) - e(2,2,12) = 0
 31(1,2,13): e(2,2,12) - x(2,2,13) - e(2,2,13) = 0
 31(1,2,14): e(2,2,13) - x(2,2,14) - e(2,2,14) = 0
 31(1,2,15): e(2,2,14) - x(2,2,15) - e(2,2,15) = 0
 31(1,2,16): e(2,2,15) - x(2,2,16) - e(2,2,16) = 0
 31(1,2,17): e(2,2,16) - x(2,2,17) - e(2,2,17) = 0
 31(1,2,18): e(2,2,17) - x(2,2,18) - e(2,2,18) = 0
 31(1,2,19): e(2,2,18) - x(2,2,19) - e(2,2,19) = 0
 31(1,2,20): e(2,2,19) - x(2,2,20) - e(2,2,20) = 0
 31(1,2,21): e(2,2,20) - x(2,2,21) - e(2,2,21) = 0
 31(1,2,22): e(2,2,21) - x(2,2,22) - e(2,2,22) = 0
 31(1,2,23): e(2,2,22) - x(2,2,23) - e(2,2,23) = 0
 31(1,2,24): e(2,2,23) - x(2,2,24) - e(2,2,24) = 0
 31(1,2,25): e(2,2,24) - x(2,2,25) - e(2,2,25) = 0
 31(1,3,2): e(3,3,1) - x(3,3,2) - e(3,3,2) = 0
 31(1,3,3): e(3,3,2) - x(3,3,3) - e(3,3,3) = 0
 31(1,3,4): e(3,3,3) - x(3,3,4) - e(3,3,4) = 0
 31(1,3,5): e(3,3,4) - x(3,3,5) - e(3,3,5) = 0
 31(1,3,6): e(3,3,5) - x(3,3,6) - e(3,3,6) = 0
 31(1,3,7): e(3,3,6) - x(3,3,7) - e(3,3,7) = 0
 31(1,3,8): e(3,3,7) - x(3,3,8) - e(3,3,8) = 0
 31(1,3,9): e(3,3,8) - x(3,3,9) - e(3,3,9) = 0
 31(1,3,10): e(3,3,9) - x(3,3,10) - e(3,3,10) = 0
 31(1,3,11): e(3,3,10) - x(3,3,11) - e(3,3,11) = 0
 31(1,3,12): e(3,3,11) - x(3,3,12) - e(3,3,12) = 0
 31(1,3,13): e(3,3,12) - x(3,3,13) - e(3,3,13) = 0
 31(1,3,14): e(3,3,13) - x(3,3,14) - e(3,3,14) = 0
 31(1,3,15): e(3,3,14) - x(3,3,15) - e(3,3,15) = 0
 31(1,3,16): e(3,3,15) - x(3,3,16) - e(3,3,16) = 0
 31(1,3,17): e(3,3,16) - x(3,3,17) - e(3,3,17) = 0
 31(1,3,18): e(3,3,17) - x(3,3,18) - e(3,3,18) = 0
 31(1,3,19): e(3,3,18) - x(3,3,19) - e(3,3,19) = 0
 31(1,3,20): e(3,3,19) - x(3,3,20) - e(3,3,20) = 0
 31(1,3,21): e(3,3,20) - x(3,3,21) - e(3,3,21) = 0
 31(1,3,22): e(3,3,21) - x(3,3,22) - e(3,3,22) = 0
 31(1,3,23): e(3,3,22) - x(3,3,23) - e(3,3,23) = 0
 31(1,3,24): e(3,3,23) - x(3,3,24) - e(3,3,24) = 0
 31(1,3,25): e(3,3,24) - x(3,3,25) - e(3,3,25) = 0
 31(2,1,2): e(1,1,1) - x(1,1,2) - e(1,1,2) = 0
 31(2,1,3): e(1,1,2) - x(1,1,3) - e(1,1,3) + x(3,1,1) = 0
 31(2,1,4): e(1,1,3) - x(1,1,4) - e(1,1,4) + x(3,1,2) = 0
 31(2,1,5): e(1,1,4) - x(1,1,5) - e(1,1,5) + x(3,1,3) = 0
 31(2,1,6): e(1,1,5) - x(1,1,6) - e(1,1,6) + x(3,1,4) = 0
 31(2,1,7): e(1,1,6) - x(1,1,7) - e(1,1,7) + x(3,1,5) = 0
 31(2,1,8): e(1,1,7) - x(1,1,8) - e(1,1,8) + x(3,1,6) = 0
 31(2,1,9): e(1,1,8) - x(1,1,9) - e(1,1,9) + x(3,1,7) = 0
 31(2,1,10): e(1,1,9) - x(1,1,10) - e(1,1,10) + x(3,1,8) = 0
 31(2,1,11): e(1,1,10) - x(1,1,11) - e(1,1,11) + x(3,1,9) = 0
 31(2,1,12): e(1,1,11) - x(1,1,12) - e(1,1,12) + x(3,1,10) = 0
 31(2,1,13): e(1,1,12) - x(1,1,13) - e(1,1,13) + x(3,1,11) = 0
 31(2,1,14): e(1,1,13) - x(1,1,14) - e(1,1,14) + x(3,1,12) = 0
 31(2,1,15): e(1,1,14) - x(1,1,15) - e(1,1,15) + x(3,1,13) = 0
 31(2,1,16): e(1,1,15) - x(1,1,16) - e(1,1,16) + x(3,1,14) = 0
 31(2,1,17): e(1,1,16) - x(1,1,17) - e(1,1,17) + x(3,1,15) = 0
 31(2,1,18): e(1,1,17) - x(1,1,18) - e(1,1,18) + x(3,1,16) = 0
 31(2,1,19): e(1,1,18) - x(1,1,19) - e(1,1,19) + x(3,1,17) = 0
 31(2,1,20): e(1,1,19) - x(1,1,20) - e(1,1,20) + x(3,1,18) = 0
 31(2,1,21): e(1,1,20) - x(1,1,21) - e(1,1,21) + x(3,1,19) = 0
 31(2,1,22): e(1,1,21) - x(1,1,22) - e(1,1,22) + x(3,1,20) = 0
 31(2,1,23): e(1,1,22) - x(1,1,23) - e(1,1,23) + x(3,1,21) = 0
 31(2,1,24): e(1,1,23) - x(1,1,24) - e(1,1,24) + x(3,1,22) = 0
 31(2,1,25): e(1,1,24) - x(1,1,25) - e(1,1,25) + x(3,1,23) = 0
 31(2,2,2): x(2,2,1) + e(3,2,1) - x(3,2,2) - e(3,2,2) = 0
 31(2,2,3): x(2,2,2) + e(3,2,2) - x(3,2,3) - e(3,2,3) = 0
 31(2,2,4): x(2,2,3) + e(3,2,3) - x(3,2,4) - e(3,2,4) = 0
 31(2,2,5): x(2,2,4) + e(3,2,4) - x(3,2,5) - e(3,2,5) = 0
 31(2,2,6): x(2,2,5) + e(3,2,5) - x(3,2,6) - e(3,2,6) = 0
 31(2,2,7): x(2,2,6) + e(3,2,6) - x(3,2,7) - e(3,2,7) = 0
 31(2,2,8): x(2,2,7) + e(3,2,7) - x(3,2,8) - e(3,2,8) = 0
 31(2,2,9): x(2,2,8) + e(3,2,8) - x(3,2,9) - e(3,2,9) = 0
 31(2,2,10): x(2,2,9) + e(3,2,9) - x(3,2,10) - e(3,2,10) = 0
 31(2,2,11): x(2,2,10) + e(3,2,10) - x(3,2,11) - e(3,2,11) = 0
 31(2,2,12): x(2,2,11) + e(3,2,11) - x(3,2,12) - e(3,2,12) = 0
 31(2,2,13): x(2,2,12) + e(3,2,12) - x(3,2,13) - e(3,2,13) = 0
 31(2,2,14): x(2,2,13) + e(3,2,13) - x(3,2,14) - e(3,2,14) = 0
 31(2,2,15): x(2,2,14) + e(3,2,14) - x(3,2,15) - e(3,2,15) = 0
 31(2,2,16): x(2,2,15) + e(3,2,15) - x(3,2,16) - e(3,2,16) = 0
 31(2,2,17): x(2,2,16) + e(3,2,16) - x(3,2,17) - e(3,2,17) = 0
 31(2,2,18): x(2,2,17) + e(3,2,17) - x(3,2,18) - e(3,2,18) = 0
 31(2,2,19): x(2,2,18) + e(3,2,18) - x(3,2,19) - e(3,2,19) = 0
 31(2,2,20): x(2,2,19) + e(3,2,19) - x(3,2,20) - e(3,2,20) = 0
 31(2,2,21): x(2,2,20) + e(3,2,20) - x(3,2,21) - e(3,2,21) = 0
 31(2,2,22): x(2,2,21) + e(3,2,21) - x(3,2,22) - e(3,2,22) = 0
 31(2,2,23): x(2,2,22) + e(3,2,22) - x(3,2,23) - e(3,2,23) = 0
 31(2,2,24): x(2,2,23) + e(3,2,23) - x(3,2,24) - e(3,2,24) = 0
 31(2,2,25): x(2,2,24) + e(3,2,24) - x(3,2,25) - e(3,2,25) = 0
 31(2,3,2): e(2,3,1) - x(2,3,2) - e(2,3,2) + x(3,3,1) = 0
 31(2,3,3): e(2,3,2) - x(2,3,3) - e(2,3,3) + x(3,3,2) = 0
 31(2,3,4): e(2,3,3) - x(2,3,4) - e(2,3,4) + x(3,3,3) = 0
 31(2,3,5): e(2,3,4) - x(2,3,5) - e(2,3,5) + x(3,3,4) = 0
 31(2,3,6): e(2,3,5) - x(2,3,6) - e(2,3,6) + x(3,3,5) = 0
 31(2,3,7): e(2,3,6) - x(2,3,7) - e(2,3,7) + x(3,3,6) = 0
 31(2,3,8): e(2,3,7) - x(2,3,8) - e(2,3,8) + x(3,3,7) = 0
 31(2,3,9): e(2,3,8) - x(2,3,9) - e(2,3,9) + x(3,3,8) = 0
 31(2,3,10): e(2,3,9) - x(2,3,10) - e(2,3,10) + x(3,3,9) = 0
 31(2,3,11): e(2,3,10) - x(2,3,11) - e(2,3,11) + x(3,3,10) = 0
 31(2,3,12): e(2,3,11) - x(2,3,12) - e(2,3,12) + x(3,3,11) = 0
 31(2,3,13): e(2,3,12) - x(2,3,13) - e(2,3,13) + x(3,3,12) = 0
 31(2,3,14): e(2,3,13) - x(2,3,14) - e(2,3,14) + x(3,3,13) = 0
 31(2,3,15): e(2,3,14) - x(2,3,15) - e(2,3,15) + x(3,3,14) = 0
 31(2,3,16): e(2,3,15) - x(2,3,16) - e(2,3,16) + x(3,3,15) = 0
 31(2,3,17): e(2,3,16) - x(2,3,17) - e(2,3,17) + x(3,3,16) = 0
 31(2,3,18): e(2,3,17) - x(2,3,18) - e(2,3,18) + x(3,3,17) = 0
 31(2,3,19): e(2,3,18) - x(2,3,19) - e(2,3,19) + x(3,3,18) = 0
 31(2,3,20): e(2,3,19) - x(2,3,20) - e(2,3,20) + x(3,3,19) = 0
 31(2,3,21): e(2,3,20) - x(2,3,21) - e(2,3,21) + x(3,3,20) = 0
 31(2,3,22): e(2,3,21) - x(2,3,22) - e(2,3,22) + x(3,3,21) = 0
 31(2,3,23): e(2,3,22) - x(2,3,23) - e(2,3,23) + x(3,3,22) = 0
 31(2,3,24): e(2,3,23) - x(2,3,24) - e(2,3,24) + x(3,3,23) = 0
 31(2,3,25): e(2,3,24) - x(2,3,25) - e(2,3,25) + x(3,3,24) = 0
 31(3,1,2): x(1,1,1) + e(2,1,1) - x(2,1,2) - e(2,1,2) = 0
 31(3,1,3): x(1,1,2) + e(2,1,2) - x(2,1,3) - e(2,1,3) = 0
 31(3,1,4): x(1,1,3) + e(2,1,3) - x(2,1,4) - e(2,1,4) = 0
 31(3,1,5): x(1,1,4) + e(2,1,4) - x(2,1,5) - e(2,1,5) = 0
 31(3,1,6): x(1,1,5) + e(2,1,5) - x(2,1,6) - e(2,1,6) = 0
 31(3,1,7): x(1,1,6) + e(2,1,6) - x(2,1,7) - e(2,1,7) = 0
 31(3,1,8): x(1,1,7) + e(2,1,7) - x(2,1,8) - e(2,1,8) = 0
 31(3,1,9): x(1,1,8) + e(2,1,8) - x(2,1,9) - e(2,1,9) = 0
 31(3,1,10): x(1,1,9) + e(2,1,9) - x(2,1,10) - e(2,1,10) = 0
 31(3,1,11): x(1,1,10) + e(2,1,10) - x(2,1,11) - e(2,1,11) = 0
 31(3,1,12): x(1,1,11) + e(2,1,11) - x(2,1,12) - e(2,1,12) = 0
 31(3,1,13): x(1,1,12) + e(2,1,12) - x(2,1,13) - e(2,1,13) = 0
 31(3,1,14): x(1,1,13) + e(2,1,13) - x(2,1,14) - e(2,1,14) = 0
 31(3,1,15): x(1,1,14) + e(2,1,14) - x(2,1,15) - e(2,1,15) = 0
 31(3,1,16): x(1,1,15) + e(2,1,15) - x(2,1,16) - e(2,1,16) = 0
 31(3,1,17): x(1,1,16) + e(2,1,16) - x(2,1,17) - e(2,1,17) = 0
 31(3,1,18): x(1,1,17) + e(2,1,17) - x(2,1,18) - e(2,1,18) = 0
 31(3,1,19): x(1,1,18) + e(2,1,18) - x(2,1,19) - e(2,1,19) = 0
 31(3,1,20): x(1,1,19) + e(2,1,19) - x(2,1,20) - e(2,1,20) = 0
 31(3,1,21): x(1,1,20) + e(2,1,20) - x(2,1,21) - e(2,1,21) = 0
 31(3,1,22): x(1,1,21) + e(2,1,21) - x(2,1,22) - e(2,1,22) = 0
 31(3,1,23): x(1,1,22) + e(2,1,22) - x(2,1,23) - e(2,1,23) = 0
 31(3,1,24): x(1,1,23) + e(2,1,23) - x(2,1,24) - e(2,1,24) = 0
 31(3,1,25): x(1,1,24) + e(2,1,24) - x(2,1,25) - e(2,1,25) = 0
 31(3,2,2): e(1,2,1) - x(1,2,2) - e(1,2,2) = 0
 31(3,2,3): e(1,2,2) - x(1,2,3) - e(1,2,3) + x(3,2,1) = 0
 31(3,2,4): e(1,2,3) - x(1,2,4) - e(1,2,4) + x(3,2,2) = 0
 31(3,2,5): e(1,2,4) - x(1,2,5) - e(1,2,5) + x(3,2,3) = 0
 31(3,2,6): e(1,2,5) - x(1,2,6) - e(1,2,6) + x(3,2,4) = 0
 31(3,2,7): e(1,2,6) - x(1,2,7) - e(1,2,7) + x(3,2,5) = 0
 31(3,2,8): e(1,2,7) - x(1,2,8) - e(1,2,8) + x(3,2,6) = 0
 31(3,2,9): e(1,2,8) - x(1,2,9) - e(1,2,9) + x(3,2,7) = 0
 31(3,2,10): e(1,2,9) - x(1,2,10) - e(1,2,10) + x(3,2,8) = 0
 31(3,2,11): e(1,2,10) - x(1,2,11) - e(1,2,11) + x(3,2,9) = 0
 31(3,2,12): e(1,2,11) - x(1,2,12) - e(1,2,12) + x(3,2,10) = 0
 31(3,2,13): e(1,2,12) - x(1,2,13) - e(1,2,13) + x(3,2,11) = 0
 31(3,2,14): e(1,2,13) - x(1,2,14) - e(1,2,14) + x(3,2,12) = 0
 31(3,2,15): e(1,2,14) - x(1,2,15) - e(1,2,15) + x(3,2,13) = 0
 31(3,2,16): e(1,2,15) - x(1,2,16) - e(1,2,16) + x(3,2,14) = 0
 31(3,2,17): e(1,2,16) - x(1,2,17) - e(1,2,17) + x(3,2,15) = 0
 31(3,2,18): e(1,2,17) - x(1,2,18) - e(1,2,18) + x(3,2,16) = 0
 31(3,2,19): e(1,2,18) - x(1,2,19) - e(1,2,19) + x(3,2,17) = 0
 31(3,2,20): e(1,2,19) - x(1,2,20) - e(1,2,20) + x(3,2,18) = 0
 31(3,2,21): e(1,2,20) - x(1,2,21) - e(1,2,21) + x(3,2,19) = 0
 31(3,2,22): e(1,2,21) - x(1,2,22) - e(1,2,22) + x(3,2,20) = 0
 31(3,2,23): e(1,2,22) - x(1,2,23) - e(1,2,23) + x(3,2,21) = 0
 31(3,2,24): e(1,2,23) - x(1,2,24) - e(1,2,24) + x(3,2,22) = 0
 31(3,2,25): e(1,2,24) - x(1,2,25) - e(1,2,25) + x(3,2,23) = 0
 31(3,3,2): e(1,3,1) - x(1,3,2) - e(1,3,2) = 0
 31(3,3,3): e(1,3,2) - x(1,3,3) - e(1,3,3) + x(2,3,1) = 0
 31(3,3,4): e(1,3,3) - x(1,3,4) - e(1,3,4) + x(2,3,2) = 0
 31(3,3,5): e(1,3,4) - x(1,3,5) - e(1,3,5) + x(2,3,3) = 0
 31(3,3,6): e(1,3,5) - x(1,3,6) - e(1,3,6) + x(2,3,4) = 0
 31(3,3,7): e(1,3,6) - x(1,3,7) - e(1,3,7) + x(2,3,5) = 0
 31(3,3,8): e(1,3,7) - x(1,3,8) - e(1,3,8) + x(2,3,6) = 0
 31(3,3,9): e(1,3,8) - x(1,3,9) - e(1,3,9) + x(2,3,7) = 0
 31(3,3,10): e(1,3,9) - x(1,3,10) - e(1,3,10) + x(2,3,8) = 0
 31(3,3,11): e(1,3,10) - x(1,3,11) - e(1,3,11) + x(2,3,9) = 0
 31(3,3,12): e(1,3,11) - x(1,3,12) - e(1,3,12) + x(2,3,10) = 0
 31(3,3,13): e(1,3,12) - x(1,3,13) - e(1,3,13) + x(2,3,11) = 0
 31(3,3,14): e(1,3,13) - x(1,3,14) - e(1,3,14) + x(2,3,12) = 0
 31(3,3,15): e(1,3,14) - x(1,3,15) - e(1,3,15) + x(2,3,13) = 0
 31(3,3,16): e(1,3,15) - x(1,3,16) - e(1,3,16) + x(2,3,14) = 0
 31(3,3,17): e(1,3,16) - x(1,3,17) - e(1,3,17) + x(2,3,15) = 0
 31(3,3,18): e(1,3,17) - x(1,3,18) - e(1,3,18) + x(2,3,16) = 0
 31(3,3,19): e(1,3,18) - x(1,3,19) - e(1,3,19) + x(2,3,17) = 0
 31(3,3,20): e(1,3,19) - x(1,3,20) - e(1,3,20) + x(2,3,18) = 0
 31(3,3,21): e(1,3,20) - x(1,3,21) - e(1,3,21) + x(2,3,19) = 0
 31(3,3,22): e(1,3,21) - x(1,3,22) - e(1,3,22) + x(2,3,20) = 0
 31(3,3,23): e(1,3,22) - x(1,3,23) - e(1,3,23) + x(2,3,21) = 0
 31(3,3,24): e(1,3,23) - x(1,3,24) - e(1,3,24) + x(2,3,22) = 0
 31(3,3,25): e(1,3,24) - x(1,3,25) - e(1,3,25) + x(2,3,23) = 0
 execution(1,1): x(1,1,2) + x(1,1,3) + x(1,1,4) + x(1,1,5) + x(1,1,6)
   + x(1,1,7) + x(1,1,8) + x(1,1,9) + x(1,1,10) + x(1,1,11) + x(1,1,12)
   + x(1,1,13) + x(1,1,14) + x(1,1,15) + x(1,1,16) + x(1,1,17) + x(1,1,18)
   + x(1,1,19) + x(1,1,20) + x(1,1,21) + x(1,1,22) = 1
 execution(1,2): x(1,2,3) + x(1,2,4) + x(1,2,5) + x(1,2,6) + x(1,2,7)
   + x(1,2,8) + x(1,2,9) + x(1,2,10) + x(1,2,11) + x(1,2,12) + x(1,2,13)
   + x(1,2,14) + x(1,2,15) + x(1,2,16) + x(1,2,17) + x(1,2,18) + x(1,2,19)
   + x(1,2,20) + x(1,2,21) + x(1,2,22) + x(1,2,23) = 1
 execution(1,3): x(1,3,3) + x(1,3,4) + x(1,3,5) + x(1,3,6) + x(1,3,7)
   + x(1,3,8) + x(1,3,9) + x(1,3,10) + x(1,3,11) + x(1,3,12) + x(1,3,13)
   + x(1,3,14) + x(1,3,15) + x(1,3,16) + x(1,3,17) + x(1,3,18) + x(1,3,19)
   + x(1,3,20) + x(1,3,21) + x(1,3,22) + x(1,3,23) + x(1,3,24) = 1
 execution(2,1): x(2,1,3) + x(2,1,4) + x(2,1,5) + x(2,1,6) + x(2,1,7)
   + x(2,1,8) + x(2,1,9) + x(2,1,10) + x(2,1,11) + x(2,1,12) + x(2,1,13)
   + x(2,1,14) + x(2,1,15) + x(2,1,16) + x(2,1,17) + x(2,1,18) + x(2,1,19)
   + x(2,1,20) + x(2,1,21) + x(2,1,22) + x(2,1,23) = 1
 execution(2,2): f(1,1) + x(2,2,1) + x(2,2,2) + x(2,2,3) + x(2,2,4)
   + x(2,2,5) + x(2,2,6) + x(2,2,7) + x(2,2,8) + x(2,2,9) + x(2,2,10)
   + x(2,2,11) + x(2,2,12) + x(2,2,13) + x(2,2,14) + x(2,2,15) + x(2,2,16)
   + x(2,2,17) + x(2,2,18) + x(2,2,19) + x(2,2,20) = 1
 execution(2,3): x(2,3,1) + x(2,3,2) + x(2,3,3) + x(2,3,4) + x(2,3,5)
   + x(2,3,6) + x(2,3,7) + x(2,3,8) + x(2,3,9) + x(2,3,10) + x(2,3,11)
   + x(2,3,12) + x(2,3,13) + x(2,3,14) + x(2,3,15) + x(2,3,16) + x(2,3,17)
   + x(2,3,18) + x(2,3,19) + x(2,3,20) + x(2,3,21) + x(2,3,22) = 1
 execution(3,1): f(1,1) + x(3,1,1) + x(3,1,2) + x(3,1,3) + x(3,1,4)
   + x(3,1,5) + x(3,1,6) + x(3,1,7) + x(3,1,8) + x(3,1,9) + x(3,1,10)
   + x(3,1,11) + x(3,1,12) + x(3,1,13) + x(3,1,14) + x(3,1,15) + x(3,1,16)
   + x(3,1,17) + x(3,1,18) + x(3,1,19) + x(3,1,20) = 1
 execution(3,2): x(3,2,1) + x(3,2,2) + x(3,2,3) + x(3,2,4) + x(3,2,5)
   + x(3,2,6) + x(3,2,7) + x(3,2,8) + x(3,2,9) + x(3,2,10) + x(3,2,11)
   + x(3,2,12) + x(3,2,13) + x(3,2,14) + x(3,2,15) + x(3,2,16) + x(3,2,17)
   + x(3,2,18) + x(3,2,19) + x(3,2,20) + x(3,2,21) = 1
 execution(3,3): f(1,1) + x(3,3,1) + x(3,3,2) + x(3,3,3) + x(3,3,4)
   + x(3,3,5) + x(3,3,6) + x(3,3,7) + x(3,3,8) + x(3,3,9) + x(3,3,10)
   + x(3,3,11) + x(3,3,12) + x(3,3,13) + x(3,3,14) + x(3,3,15) + x(3,3,16)
   + x(3,3,17) + x(3,3,18) + x(3,3,19) + x(3,3,20) + x(3,3,21) = 1
 fin(1): - 5 x(2,1,3) - 6 x(2,1,4) - 7 x(2,1,5) - 8 x(2,1,6) - 9 x(2,1,7)
   - 10 x(2,1,8) - 11 x(2,1,9) - 12 x(2,1,10) - 13 x(2,1,11) - 14 x(2,1,12)
   - 15 x(2,1,13) - 16 x(2,1,14) - 17 x(2,1,15) - 18 x(2,1,16)
   - 19 x(2,1,17) - 20 x(2,1,18) - 21 x(2,1,19) - 22 x(2,1,20)
   - 23 x(2,1,21) - 24 x(2,1,22) - 25 x(2,1,23) + C >= 0
 fin(2): - 5 x(1,2,3) - 6 x(1,2,4) - 7 x(1,2,5) - 8 x(1,2,6) - 9 x(1,2,7)
   - 10 x(1,2,8) - 11 x(1,2,9) - 12 x(1,2,10) - 13 x(1,2,11) - 14 x(1,2,12)
   - 15 x(1,2,13) - 16 x(1,2,14) - 17 x(1,2,15) - 18 x(1,2,16)
   - 19 x(1,2,17) - 20 x(1,2,18) - 21 x(1,2,19) - 22 x(1,2,20)
   - 23 x(1,2,21) - 24 x(1,2,22) - 25 x(1,2,23) + C >= 0
 fin(3): - 4 x(1,3,3) - 5 x(1,3,4) - 6 x(1,3,5) - 7 x(1,3,6) - 8 x(1,3,7)
   - 9 x(1,3,8) - 10 x(1,3,9) - 11 x(1,3,10) - 12 x(1,3,11) - 13 x(1,3,12)
   - 14 x(1,3,13) - 15 x(1,3,14) - 16 x(1,3,15) - 17 x(1,3,16)
   - 18 x(1,3,17) - 19 x(1,3,18) - 20 x(1,3,19) - 21 x(1,3,20)
   - 22 x(1,3,21) - 23 x(1,3,22) - 24 x(1,3,23) - 25 x(1,3,24) + C >= 0
Bounds
Binaries
 f(1,1) x(1,1,1) e(1,1,1) x(1,2,1) e(1,2,1) x(1,3,1) e(1,3,1) f(1,2)
 x(1,1,2) e(1,1,2) x(1,2,2) e(1,2,2) x(1,3,2) e(1,3,2) f(1,3) x(1,1,3)
 e(1,1,3) x(1,2,3) e(1,2,3) x(1,3,3) e(1,3,3) f(1,4) x(1,1,4) e(1,1,4)
 x(1,2,4) e(1,2,4) x(1,3,4) e(1,3,4) f(1,5) x(1,1,5) e(1,1,5) x(1,2,5)
 e(1,2,5) x(1,3,5) e(1,3,5) f(1,6) x(1,1,6) e(1,1,6) x(1,2,6) e(1,2,6)
 x(1,3,6) e(1,3,6) f(1,7) x(1,1,7) e(1,1,7) x(1,2,7) e(1,2,7) x(1,3,7)
 e(1,3,7) f(1,8) x(1,1,8) e(1,1,8) x(1,2,8) e(1,2,8) x(1,3,8) e(1,3,8)
 f(1,9) x(1,1,9) e(1,1,9) x(1,2,9) e(1,2,9) x(1,3,9) e(1,3,9) f(1,10)
 x(1,1,10) e(1,1,10) x(1,2,10) e(1,2,10) x(1,3,10) e(1,3,10) f(1,11)
 x(1,1,11) e(1,1,11) x(1,2,11) e(1,2,11) x(1,3,11) e(1,3,11) f(1,12)
 x(1,1,12) e(1,1,12) x(1,2,12) e(1,2,12) x(1,3,12) e(1,3,12) f(1,13)
 x(1,1,13) e(1,1,13) x(1,2,13) e(1,2,13) x(1,3,13) e(1,3,13) f(1,14)
 x(1,1,14) e(1,1,14) x(1,2,14) e(1,2,14) x(1,3,14) e(1,3,14) f(1,15)
 x(1,1,15) e(1,1,15) x(1,2,15) e(1,2,15) x(1,3,15) e(1,3,15) f(1,16)
 x(1,1,16) e(1,1,16) x(1,2,16) e(1,2,16) x(1,3,16) e(1,3,16) f(1,17)
 x(1,1,17) e(1,1,17) x(1,2,17) e(1,2,17) x(1,3,17) e(1,3,17) f(1,18)
 x(1,1,18) e(1,1,18) x(1,2,18) e(1,2,18) x(1,3,18) e(1,3,18) f(1,19)
 x(1,1,19) e(1,1,19) x(1,2,19) e(1,2,19) x(1,3,19) e(1,3,19) f(1,20)
 x(1,1,20) e(1,1,20) x(1,2,20) e(1,2,20) x(1,3,20) e(1,3,20) f(1,21)
 x(1,1,21) e(1,1,21) x(1,2,21) e(1,2,21) x(1,3,21) e(1,3,21) f(1,22)
 x(1,1,22) e(1,1,22) x(1,2,22) e(1,2,22) x(1,3,22) e(1,3,22) f(1,23)
 x(1,1,23) e(1,1,23) x(1,2,23) e(1,2,23) x(1,3,23) e(1,3,23) f(1,24)
 x(1,1,24) e(1,1,24) x(1,2,24) e(1,2,24) x(1,3,24) e(1,3,24) f(1,25)
 x(1,1,25) e(1,1,25) x(1,2,25) e(1,2,25) x(1,3,25) e(1,3,25) f(2,1)
 x(2,1,1) e(2,1,1) x(2,2,1) e(2,2,1) x(2,3,1) e(2,3,1) f(2,2) x(2,1,2)
 e(2,1,2) x(2,2,2) e(2,2,2) x(2,3,2) e(2,3,2) f(2,3) x(2,1,3) e(2,1,3)
 x(2,2,3) e(2,2,3) x(2,3,3) e(2,3,3) f(2,4) x(2,1,4) e(2,1,4) x(2,2,4)
 e(2,2,4) x(2,3,4) e(2,3,4) f(2,5) x(2,1,5) e(2,1,5) x(2,2,5) e(2,2,5)
 x(2,3,5) e(2,3,5) f(2,6) x(2,1,6) e(2,1,6) x(2,2,6) e(2,2,6) x(2,3,6)
 e(2,3,6) f(2,7) x(2,1,7) e(2,1,7) x(2,2,7) e(2,2,7) x(2,3,7) e(2,3,7)
 f(2,8) x(2,1,8) e(2,1,8) x(2,2,8) e(2,2,8) x(2,3,8) e(2,3,8) f(2,9)
 x(2,1,9) e(2,1,9) x(2,2,9) e(2,2,9) x(2,3,9) e(2,3,9) f(2,10) x(2,1,10)
 e(2,1,10) x(2,2,10) e(2,2,10) x(2,3,10) e(2,3,10) f(2,11) x(2,1,11)
 e(2,1,11) x(2,2,11) e(2,2,11) x(2,3,11) e(2,3,11) f(2,12) x(2,1,12)
 e(2,1,12) x(2,2,12) e(2,2,12) x(2,3,12) e(2,3,12) f(2,13) x(2,1,13)
 e(2,1,13) x(2,2,13) e(2,2,13) x(2,3,13) e(2,3,13) f(2,14) x(2,1,14)
 e(2,1,14) x(2,2,14) e(2,2,14) x(2,3,14) e(2,3,14) f(2,15) x(2,1,15)
 e(2,1,15) x(2,2,15) e(2,2,15) x(2,3,15) e(2,3,15) f(2,16) x(2,1,16)
 e(2,1,16) x(2,2,16) e(2,2,16) x(2,3,16) e(2,3,16) f(2,17) x(2,1,17)
 e(2,1,17) x(2,2,17) e(2,2,17) x(2,3,17) e(2,3,17) f(2,18) x(2,1,18)
 e(2,1,18) x(2,2,18) e(2,2,18) x(2,3,18) e(2,3,18) f(2,19) x(2,1,19)
 e(2,1,19) x(2,2,19) e(2,2,19) x(2,3,19) e(2,3,19) f(2,20) x(2,1,20)
 e(2,1,20) x(2,2,20) e(2,2,20) x(2,3,20) e(2,3,20) f(2,21) x(2,1,21)
 e(2,1,21) x(2,2,21) e(2,2,21) x(2,3,21) e(2,3,21) f(2,22) x(2,1,22)
 e(2,1,22) x(2,2,22) e(2,2,22) x(2,3,22) e(2,3,22) f(2,23) x(2,1,23)
 e(2,1,23) x(2,2,23) e(2,2,23) x(2,3,23) e(2,3,23) f(2,24) x(2,1,24)
 e(2,1,24) x(2,2,24) e(2,2,24) x(2,3,24) e(2,3,24) f(2,25) x(2,1,25)
 e(2,1,25) x(2,2,25) e(2,2,25) x(2,3,25) e(2,3,25) f(3,1) x(3,1,1) e(3,1,1)
 x(3,2,1) e(3,2,1) x(3,3,1) e(3,3,1) f(3,2) x(3,1,2) e(3,1,2) x(3,2,2)
 e(3,2,2) x(3,3,2) e(3,3,2) f(3,3) x(3,1,3) e(3,1,3) x(3,2,3) e(3,2,3)
 x(3,3,3) e(3,3,3) f(3,4) x(3,1,4) e(3,1,4) x(3,2,4) e(3,2,4) x(3,3,4)
 e(3,3,4) f(3,5) x(3,1,5) e(3,1,5) x(3,2,5) e(3,2,5) x(3,3,5) e(3,3,5)
 f(3,6) x(3,1,6) e(3,1,6) x(3,2,6) e(3,2,6) x(3,3,6) e(3,3,6) f(3,7)
 x(3,1,7) e(3,1,7) x(3,2,7) e(3,2,7) x(3,3,7) e(3,3,7) f(3,8) x(3,1,8)
 e(3,1,8) x(3,2,8) e(3,2,8) x(3,3,8) e(3,3,8) f(3,9) x(3,1,9) e(3,1,9)
 x(3,2,9) e(3,2,9) x(3,3,9) e(3,3,9) f(3,10) x(3,1,10) e(3,1,10) x(3,2,10)
 e(3,2,10) x(3,3,10) e(3,3,10) f(3,11) x(3,1,11) e(3,1,11) x(3,2,11)
 e(3,2,11) x(3,3,11) e(3,3,11) f(3,12) x(3,1,12) e(3,1,12) x(3,2,12)
 e(3,2,12) x(3,3,12) e(3,3,12) f(3,13) x(3,1,13) e(3,1,13) x(3,2,13)
 e(3,2,13) x(3,3,13) e(3,3,13) f(3,14) x(3,1,14) e(3,1,14) x(3,2,14)
 e(3,2,14) x(3,3,14) e(3,3,14) f(3,15) x(3,1,15) e(3,1,15) x(3,2,15)
 e(3,2,15) x(3,3,15) e(3,3,15) f(3,16) x(3,1,16) e(3,1,16) x(3,2,16)
 e(3,2,16) x(3,3,16) e(3,3,16) f(3,17) x(3,1,17) e(3,1,17) x(3,2,17)
 e(3,2,17) x(3,3,17) e(3,3,17) f(3,18) x(3,1,18) e(3,1,18) x(3,2,18)
 e(3,2,18) x(3,3,18) e(3,3,18) f(3,19) x(3,1,19) e(3,1,19) x(3,2,19)
 e(3,2,19) x(3,3,19) e(3,3,19) f(3,20) x(3,1,20) e(3,1,20) x(3,2,20)
 e(3,2,20) x(3,3,20) e(3,3,20) f(3,21) x(3,1,21) e(3,1,21) x(3,2,21)
 e(3,2,21) x(3,3,21) e(3,3,21) f(3,22) x(3,1,22) e(3,1,22) x(3,2,22)
 e(3,2,22) x(3,3,22) e(3,3,22) f(3,23) x(3,1,23) e(3,1,23) x(3,2,23)
 e(3,2,23) x(3,3,23) e(3,3,23) f(3,24) x(3,1,24) e(3,1,24) x(3,2,24)
 e(3,2,24) x(3,3,24) e(3,3,24) f(3,25) x(3,1,25) e(3,1,25) x(3,2,25)
 e(3,2,25) x(3,3,25) e(3,3,25)
Generals
 C
End
